PatchBench/BenchmarksExist/linux/CWE-189-Numeric-Errors/CVE_2010_4529_fdac1e0697356ac212259f2147aa60c72e334861/irda_getsockopt_SnippetExist32.smt2
; benchmark generated from python API
(set-info :status unknown)
(declare-fun rdi () (_ BitVec 64))
(assert
 (let ((?x9 ((_ extract 31 0) rdi)))
 (let (($x14 (bvsle (_ bv2 32) ?x9)))
 (and $x14))))
(check-sat)
